Sat 19 May 19:18:25 CEST 2018
CPXPARAM_TimeLimit                               45
CPXPARAM_Threads                                 1
CPXPARAM_MIP_Strategy_CallbackReducedLP          0
Tried aggregator 3 times.
MIP Presolve eliminated 3662 rows and 2745 columns.
MIP Presolve modified 1422 coefficients.
Aggregator did 2722 substitutions.
Reduced MIP has 3560 rows, 3271 columns, and 9399 nonzeros.
Reduced MIP has 3203 binaries, 8 generals, 0 SOSs, and 593 indicators.
Presolve time = 0.04 sec. (51.66 ticks)
Probing time = 0.06 sec. (52.75 ticks)
Cover probing fixed 0 vars, tightened 8 bounds.
Tried aggregator 3 times.
MIP Presolve eliminated 792 rows and 60 columns.
MIP Presolve modified 180 coefficients.
Aggregator did 1961 substitutions.
Reduced MIP has 807 rows, 1250 columns, and 4633 nonzeros.
Reduced MIP has 1242 binaries, 8 generals, 0 SOSs, and 593 indicators.
Presolve time = 0.01 sec. (14.30 ticks)
Probing time = 0.02 sec. (15.22 ticks)
Tried aggregator 2 times.
MIP Presolve modified 44 coefficients.
Aggregator did 92 substitutions.
Reduced MIP has 715 rows, 1158 columns, and 4493 nonzeros.
Reduced MIP has 1150 binaries, 8 generals, 0 SOSs, and 593 indicators.
Presolve time = 0.01 sec. (6.80 ticks)
Probing time = 0.00 sec. (2.91 ticks)
Clique table members: 20775.
MIP emphasis: balance optimality and feasibility.
MIP search method: dynamic search.
Parallel mode: none, using 1 thread.
Root relaxation solution time = 0.00 sec. (1.73 ticks)

        Nodes                                         Cuts/
   Node  Left     Objective  IInf  Best Integer    Best Bound    ItCnt     Gap

      0     0        7.0000   521                      7.0000       49         
      0     0        7.0000   426                Cliques: 278      255         
      0     0        7.0000   356                Cliques: 278      385         
      0     0        7.0000   286                Cliques: 278      582         
      0     0        7.0000   216                Cliques: 278      722         
      0     0        7.0000   152                Cliques: 278     1041         
      0     0        7.0000    91                Cliques: 278     1262         
      0     0        7.0000    30                Cliques: 278     1501         
      0     0        7.0000    43                   Cuts: 278     1678         
      0     0        7.0000    34                   Cuts: 278     1726         
      0     0        7.0000     9                   Cuts: 199     1756         
      0     0        7.0000    13                    Cuts: 29     1788         
*     0+    0                           10.0000        7.0000            30.00%
*     0+    0                            9.0000        7.0000            22.22%
*     0+    0                            7.0000        7.0000             0.00%
      0     0        cutoff              7.0000        7.0000     1788    0.00%
Elapsed time = 1.01 sec. (1162.75 ticks, tree = 0.01 MB, solutions = 3)

Clique cuts applied:  473
Implied bound cuts applied:  29
Zero-half cuts applied:  5

Root node processing (before b&c):
  Real time             =    1.01 sec. (1163.16 ticks)
Sequential b&c:
  Real time             =    0.00 sec. (0.00 ticks)
                          ------------
Total (root+branch&cut) =    1.01 sec. (1163.16 ticks)
   | W
 L | 0 1 2 3 4 5 
----------------
 0 | 7 7 4 4 2 2 
 1 | 7 7 4 4 2 2 
 2 | 7 7 3 3 . 1 
 3 | 7 7 3 3 . . 
 4 | 7 7 6 6 . . 
 5 | 7 7 6 6 5 5 
 6 | 7 7 . . 5 5 
 7 | . . . . . . 
 8 | . . . . . . 
 9 | . . . . . . 
10 | . . . . . . 
11 | . . . . . . 
12 | . . . . . . 
13 | . . . . . . 
14 | . . . . . . 
15 | . . . . . . 
16 | . . . . . . 
17 | . . . . . . 

Boxes' corners:      (w,l)
    Box 1 is at 
        top left     (5,2)
        bottom right (5,2)

    Box 2 is at 
        top left     (4,0)
        bottom right (5,1)

    Box 3 is at 
        top left     (2,2)
        bottom right (3,3)

    Box 4 is at 
        top left     (2,0)
        bottom right (3,1)

    Box 5 is at 
        top left     (4,5)
        bottom right (5,6)

    Box 6 is at 
        top left     (2,4)
        bottom right (3,5)

    Box 7 is at 
        top left     (0,0)
        bottom right (1,6)

    Roll length used: 7
In 1.05 seconds
